NAME : tsp_476_sol.txt
COMMENT : OR-Tools Guided Local Search
TYPE : TOUR
DIMENSION : 50
COST : 5751
STATUS : ROUTING_SUCCESS
GAP : 0.00% (Reference Solution)
TOUR_SECTION
1
3
35
32
45
6
27
7
47
28
11
46
9
42
39
41
49
33
24
8
23
20
30
10
31
16
19
15
40
36
4
22
29
43
2
18
25
5
34
50
17
14
44
38
21
13
37
48
26
12
-1
